10J3M/DAT/10J3MUNA-9.dat
10 3
16.673 277.9889
34.6238 1198.8075
42.7008 1823.3583
12.9392 167.4229
21.1289 446.4304
10.7142 114.7941
22.5819 509.9422
10.0999 102.008
13.9087 193.4519
30.6778 941.1274
5775.3316