10J3M/SOL/10J3MUNA-9.sol
solution status: optimal solution found
objective value:                     72.0160666666667
x#1#1                                               1 	(obj:0)
x#2#2                               0.153320355747588 	(obj:0)
x#2#3                               0.846679644252412 	(obj:0)
x#3#3                                               1 	(obj:0)
x#4#1                                               1 	(obj:0)
x#5#1                               0.363533675045395 	(obj:0)
x#5#2                               0.636466324954605 	(obj:0)
x#6#1                                               1 	(obj:0)
x#7#2                                               1 	(obj:0)
x#8#1                                               1 	(obj:0)
x#9#1                                               1 	(obj:0)
x#10#2                                              1 	(obj:0)
z                                    72.0160666666667 	(obj:1)
